c cksystemsgroup.github.io/unicorn
c CNF contains a total of 279 clauses.
c CNF contains a total of 89 variables.
c CNF clauses cover 1 bad states.
c Variable name mapping (33 names):
c   1: input[bit=0]
c   2: input[bit=0]
c   5: input[bit=1]
c   6: input[bit=1]
c   10: input[bit=2]
c   11: input[bit=2]
c   15: input[bit=3]
c   16: input[bit=3]
c   21: input[bit=4]
c   22: input[bit=4]
c   26: input[bit=5]
c   27: input[bit=5]
c   31: input[bit=6]
c   32: input[bit=6]
c   36: input[bit=7]
c   37: input[bit=7]
c   42: input[bit=8]
c   43: input[bit=8]
c   48: input[bit=9]
c   49: input[bit=9]
c   54: input[bit=10]
c   55: input[bit=10]
c   60: input[bit=11]
c   61: input[bit=11]
c   66: input[bit=12]
c   67: input[bit=12]
c   72: input[bit=13]
c   73: input[bit=13]
c   78: input[bit=14]
c   79: input[bit=14]
c   84: input[bit=15]
c   85: input[bit=15]
c   89: ?
p cnf 89 279
1 2 -3 0
1 -2 3 0
-1 2 3 0
-1 -2 -3 0
-3 -4 0
3 4 0
-1 -2 7 0
1 -7 0
2 -7 0
5 6 7 -8 0
5 6 -7 8 0
5 -6 7 8 0
5 -6 -7 -8 0
-5 6 7 8 0
-5 6 -7 -8 0
-5 -6 7 -8 0
-5 -6 -7 8 0
-4 -8 9 0
4 -9 0
8 -9 0
5 6 -12 0
5 7 -12 0
-6 -7 12 0
6 7 -12 0
-5 -7 12 0
-5 -6 12 0
10 11 12 -13 0
10 11 -12 13 0
10 -11 12 13 0
10 -11 -12 -13 0
-10 11 12 13 0
-10 11 -12 -13 0
-10 -11 12 -13 0
-10 -11 -12 13 0
-9 -13 14 0
9 -14 0
13 -14 0
10 11 -17 0
10 12 -17 0
-11 -12 17 0
11 12 -17 0
-10 -12 17 0
-10 -11 17 0
15 16 17 -18 0
15 16 -17 18 0
15 -16 17 18 0
15 -16 -17 -18 0
-15 16 17 18 0
-15 16 -17 -18 0
-15 -16 17 -18 0
-15 -16 -17 18 0
-18 -19 0
18 19 0
-14 -19 20 0
14 -20 0
19 -20 0
15 16 -23 0
15 17 -23 0
-16 -17 23 0
16 17 -23 0
-15 -17 23 0
-15 -16 23 0
21 22 23 -24 0
21 22 -23 24 0
21 -22 23 24 0
21 -22 -23 -24 0
-21 22 23 24 0
-21 22 -23 -24 0
-21 -22 23 -24 0
-21 -22 -23 24 0
-20 -24 25 0
20 -25 0
24 -25 0
21 22 -28 0
21 23 -28 0
-22 -23 28 0
22 23 -28 0
-21 -23 28 0
-21 -22 28 0
26 27 28 -29 0
26 27 -28 29 0
26 -27 28 29 0
26 -27 -28 -29 0
-26 27 28 29 0
-26 27 -28 -29 0
-26 -27 28 -29 0
-26 -27 -28 29 0
-25 -29 30 0
25 -30 0
29 -30 0
26 27 -33 0
26 28 -33 0
-27 -28 33 0
27 28 -33 0
-26 -28 33 0
-26 -27 33 0
31 32 33 -34 0
31 32 -33 34 0
31 -32 33 34 0
31 -32 -33 -34 0
-31 32 33 34 0
-31 32 -33 -34 0
-31 -32 33 -34 0
-31 -32 -33 34 0
-30 -34 35 0
30 -35 0
34 -35 0
31 32 -38 0
31 33 -38 0
-32 -33 38 0
32 33 -38 0
-31 -33 38 0
-31 -32 38 0
36 37 38 -39 0
36 37 -38 39 0
36 -37 38 39 0
36 -37 -38 -39 0
-36 37 38 39 0
-36 37 -38 -39 0
-36 -37 38 -39 0
-36 -37 -38 39 0
-39 -40 0
39 40 0
-35 -40 41 0
35 -41 0
40 -41 0
36 37 -44 0
36 38 -44 0
-37 -38 44 0
37 38 -44 0
-36 -38 44 0
-36 -37 44 0
42 43 44 -45 0
42 43 -44 45 0
42 -43 44 45 0
42 -43 -44 -45 0
-42 43 44 45 0
-42 43 -44 -45 0
-42 -43 44 -45 0
-42 -43 -44 45 0
-45 -46 0
45 46 0
-41 -46 47 0
41 -47 0
46 -47 0
42 43 -50 0
42 44 -50 0
-43 -44 50 0
43 44 -50 0
-42 -44 50 0
-42 -43 50 0
48 49 50 -51 0
48 49 -50 51 0
48 -49 50 51 0
48 -49 -50 -51 0
-48 49 50 51 0
-48 49 -50 -51 0
-48 -49 50 -51 0
-48 -49 -50 51 0
-51 -52 0
51 52 0
-47 -52 53 0
47 -53 0
52 -53 0
48 49 -56 0
48 50 -56 0
-49 -50 56 0
49 50 -56 0
-48 -50 56 0
-48 -49 56 0
54 55 56 -57 0
54 55 -56 57 0
54 -55 56 57 0
54 -55 -56 -57 0
-54 55 56 57 0
-54 55 -56 -57 0
-54 -55 56 -57 0
-54 -55 -56 57 0
-57 -58 0
57 58 0
-53 -58 59 0
53 -59 0
58 -59 0
54 55 -62 0
54 56 -62 0
-55 -56 62 0
55 56 -62 0
-54 -56 62 0
-54 -55 62 0
60 61 62 -63 0
60 61 -62 63 0
60 -61 62 63 0
60 -61 -62 -63 0
-60 61 62 63 0
-60 61 -62 -63 0
-60 -61 62 -63 0
-60 -61 -62 63 0
-63 -64 0
63 64 0
-59 -64 65 0
59 -65 0
64 -65 0
60 61 -68 0
60 62 -68 0
-61 -62 68 0
61 62 -68 0
-60 -62 68 0
-60 -61 68 0
66 67 68 -69 0
66 67 -68 69 0
66 -67 68 69 0
66 -67 -68 -69 0
-66 67 68 69 0
-66 67 -68 -69 0
-66 -67 68 -69 0
-66 -67 -68 69 0
-69 -70 0
69 70 0
-65 -70 71 0
65 -71 0
70 -71 0
66 67 -74 0
66 68 -74 0
-67 -68 74 0
67 68 -74 0
-66 -68 74 0
-66 -67 74 0
72 73 74 -75 0
72 73 -74 75 0
72 -73 74 75 0
72 -73 -74 -75 0
-72 73 74 75 0
-72 73 -74 -75 0
-72 -73 74 -75 0
-72 -73 -74 75 0
-75 -76 0
75 76 0
-71 -76 77 0
71 -77 0
76 -77 0
72 73 -80 0
72 74 -80 0
-73 -74 80 0
73 74 -80 0
-72 -74 80 0
-72 -73 80 0
78 79 80 -81 0
78 79 -80 81 0
78 -79 80 81 0
78 -79 -80 -81 0
-78 79 80 81 0
-78 79 -80 -81 0
-78 -79 80 -81 0
-78 -79 -80 81 0
-81 -82 0
81 82 0
-77 -82 83 0
77 -83 0
82 -83 0
78 79 -86 0
78 80 -86 0
-79 -80 86 0
79 80 -86 0
-78 -80 86 0
-78 -79 86 0
84 85 86 -87 0
84 85 -86 87 0
84 -85 86 87 0
84 -85 -86 -87 0
-84 85 86 87 0
-84 85 -86 -87 0
-84 -85 86 -87 0
-84 -85 -86 87 0
-87 -88 0
87 88 0
-83 -88 89 0
83 -89 0
88 -89 0
89 0
